&BANDS
 prefix='MoS2',
 filband='MoS2.bands',
 lsym=.false.,
/
